c colouring generated by benchmark framework
p edge 352 14612
v 1 12
v 2 2
v 3 1
v 4 10
v 5 6
v 6 5
v 7 9
v 8 12
v 9 2
v 10 7
v 11 11
v 12 8
v 13 2
v 14 3
v 15 12
v 16 13
v 17 2
v 18 1
v 19 7
v 20 13
v 21 2
v 22 4
v 23 9
v 24 10
v 25 6
v 26 12
v 27 4
v 28 1
v 29 3
v 30 12
v 31 2
v 32 13
v 33 9
v 34 8
v 35 1
v 36 7
v 37 10
v 38 13
v 39 2
v 40 6
v 41 6
v 42 11
v 43 8
v 44 6
v 45 6
v 46 9
v 47 3
v 48 12
v 49 6
v 50 1
v 51 3
v 52 12
v 53 13
v 54 2
v 55 11
v 56 0
v 57 12
v 58 7
v 59 11
v 60 4
v 61 10
v 62 13
v 63 2
v 64 9
v 65 0
v 66 5
v 67 8
v 68 3
v 69 12
v 70 8
v 71 3
v 72 9
v 73 0
v 74 5
v 75 7
v 76 11
v 77 4
v 78 10
v 79 13
v 80 7
v 81 11
v 82 4
v 83 10
v 84 13
v 85 7
v 86 0
v 87 8
v 88 3
v 89 9
v 90 0
v 91 5
v 92 8
v 93 3
v 94 9
v 95 0
v 96 5
v 97 10
v 98 13
v 99 0
v 100 2
v 101 7
v 102 11
v 103 4
v 104 0
v 105 12
v 106 1
v 107 6
v 108 11
v 109 4
v 110 0
v 111 5
v 112 9
v 113 7
v 114 10
v 115 8
v 116 10
v 117 12
v 118 10
v 119 8
v 120 1
v 121 7
v 122 11
v 123 10
v 124 5
v 125 0
v 126 8
v 127 12
v 128 6
v 129 2
v 130 3
v 131 13
v 132 3
v 133 13
v 134 3
v 135 13
v 136 11
v 137 7
v 138 11
v 139 3
v 140 5
v 141 2
v 142 3
v 143 6
v 144 9
v 145 0
v 146 1
v 147 7
v 148 2
v 149 11
v 150 8
v 151 13
v 152 5
v 153 11
v 154 13
v 155 2
v 156 2
v 157 8
v 158 3
v 159 12
v 160 0
v 161 6
v 162 7
v 163 11
v 164 4
v 165 8
v 166 7
v 167 1
v 168 5
v 169 10
v 170 13
v 171 2
v 172 3
v 173 12
v 174 6
v 175 9
v 176 4
v 177 1
v 178 9
v 179 0
v 180 10
v 181 11
v 182 8
v 183 5
v 184 0
v 185 9
v 186 4
v 187 12
v 188 1
v 189 3
v 190 8
v 191 9
v 192 2
v 193 11
v 194 1
v 195 13
v 196 1
v 197 12
v 198 1
v 199 1
v 200 6
v 201 9
v 202 6
v 203 13
v 204 7
v 205 11
v 206 9
v 207 0
v 208 3
v 209 12
v 210 6
v 211 9
v 212 11
v 213 4
v 214 12
v 215 0
v 216 13
v 217 10
v 218 11
v 219 4
v 220 10
v 221 5
v 222 8
v 223 3
v 224 10
v 225 13
v 226 4
v 227 0
v 228 7
v 229 12
v 230 5
v 231 7
v 232 9
v 233 4
v 234 5
v 235 12
v 236 6
v 237 12
v 238 2
v 239 12
v 240 2
v 241 1
v 242 11
v 243 2
v 244 1
v 245 7
v 246 4
v 247 8
v 248 3
v 249 12
v 250 5
v 251 10
v 252 13
v 253 2
v 254 6
v 255 0
v 256 1
v 257 11
v 258 4
v 259 6
v 260 0
v 261 5
v 262 3
v 263 12
v 264 13
v 265 2
v 266 1
v 267 8
v 268 4
v 269 3
v 270 12
v 271 8
v 272 6
v 273 0
v 274 5
v 275 10
v 276 13
v 277 10
v 278 6
v 279 0
v 280 5
v 281 10
v 282 13
v 283 2
v 284 1
v 285 7
v 286 1
v 287 11
v 288 4
v 289 8
v 290 3
v 291 7
v 292 3
v 293 13
v 294 1
v 295 4
v 296 11
v 297 12
v 298 6
v 299 0
v 300 10
v 301 2
v 302 1
v 303 7
v 304 12
v 305 5
v 306 2
v 307 4
v 308 3
v 309 3
v 310 6
v 311 9
v 312 0
v 313 9
v 314 4
v 315 13
v 316 3
v 317 0
v 318 8
v 319 12
v 320 6
v 321 9
v 322 11
v 323 1
v 324 7
v 325 10
v 326 5
v 327 1
v 328 10
v 329 5
v 330 8
v 331 1
v 332 6
v 333 9
v 334 0
v 335 6
v 336 9
v 337 0
v 338 13
v 339 1
v 340 10
v 341 7
v 342 11
v 343 4
v 344 7
v 345 11
v 346 4
v 347 1
v 348 7
v 349 11
v 350 6
v 351 5
v 352 9
